# Solution for model GasLib-40
# Objective value = 1.0103634640241367e+01
loadshed[innode_1] 0
loadshed[innode_2] 0
loadshed[innode_3] 0
loadshed[innode_4] 0
loadshed[innode_5] 0
loadshed[innode_6] 0
loadshed[innode_7] 0
loadshed[innode_8] 0
loadshed[source_1] -1.9740772960679354e-01
loadshed[source_2] -2.8679109934961922e-02
loadshed[source_3] 2.8999737712988682e-01
loadshed[sink_1] 0
loadshed[sink_2] 0
loadshed[sink_3] 0
loadshed[sink_4] 0
loadshed[sink_5] 0
loadshed[sink_6] 0
loadshed[sink_7] 0
loadshed[sink_8] 0
loadshed[sink_9] 0
loadshed[sink_10] 0
loadshed[sink_11] 0
loadshed[sink_12] 6.1780186335233833e-01
loadshed[sink_13] 0
loadshed[sink_14] 0
loadshed[sink_15] 0
loadshed[sink_16] 0
loadshed[sink_17] 0
loadshed[sink_18] 0
loadshed[sink_19] 0
loadshed[sink_20] 0
loadshed[sink_21] 0
loadshed[sink_22] 0
loadshed[sink_23] 0
loadshed[sink_24] 0
loadshed[sink_25] 0
loadshed[sink_26] 0
loadshed[sink_27] 0
loadshed[sink_28] 0
loadshed[sink_29] 0
flow[source_1,sink_3] 1.8929852058679620e+02
flow[innode_1,sink_16] 1.6354166666666970e+01
flow[innode_6,sink_13] 2.2346547941803436e+00
flow[sink_13,sink_14] -1.4119511872486324e+01
flow[sink_14,sink_10] -3.0473678539152992e+01
flow[sink_25,sink_26] 1.5015180376808269e+02
flow[sink_26,sink_9] 1.3379763710141589e+02
flow[sink_9,sink_18] 1.1744347043474923e+02
flow[sink_26,sink_4] 0
flow[sink_4,sink_20] -33.7346357993125
flow[sink_18,sink_6] 1.0108930376808256e+02
flow[sink_25,innode_8] -1.5659018725345985e+02
flow[sink_6,sink_7] 5.2026803768081663e+01
flow[sink_6,sink_22] 3.2708333333333641e+01
flow[sink_7,sink_24] 3.8958865359758640e+01
flow[sink_22,sink_1] 1.6354166666666970e+01
flow[sink_24,sink_21] 2.2604698693091969e+01
flow[sink_21,sink_12] 6.2505320264253
flow[sink_7,sink_5] -3.2862282583434563e+00
flow[sink_5,sink_17] -1.9640394925010128e+01
flow[sink_17,sink_4] -1.7380469132645832e+01
flow[sink_17,sink_8] -1.8614092459030783e+01
flow[sink_3,sink_23] 16.3541666666697
flow[sink_8,sink_20] -3.4968259125697450e+01
flow[sink_25,sink_20] 8.5057061591676785e+01
flow[sink_25,sink_15] -9.7207499567147451e+01
flow[sink_15,sink_29] -6.3249111720959505e+01
flow[sink_29,sink_28] 1.6354166666667879e+01
flow[sink_29,sink_2] 66.6667211795213
flow[sink_2,sink_15] 5.0312554512854632e+01
flow[sink_29,innode_7] -1.6262416623381534e+02
flow[innode_4,sink_19] 0
flow[sink_19,innode_3] 3.8813319405079717e+01
flow[innode_4,innode_5] 1.1224451187248698e+02
flow[sink_27,innode_5] -1.1224451187248698e+02
flow[sink_27,sink_19] 9.5890345205820310e+01
flow[sink_10,sink_11] 3.2708333333333641e+01
flow[sink_10,innode_2] -4.0722859134073580e+01
flow[sink_10,innode_3] -3.8813319405079717e+01
flow[innode_6,sink_25] -2.2346547941803436e+00
flow[sink_11,innode_1] 1.6354166666666970e+01
flow[sink_19,innode_2] 4.0722859134073580e+01
flow[source_3,innode_4] 1.1224451187248698e+02
flow[source_2,innode_7] 1.6262416623381534e+02
flow[sink_3,innode_8] 1.5659018725345985e+02
pressure[innode_1] 7.5641746540044466e+01
pressure[innode_2] 7.7945819143800477e+01
pressure[innode_3] 7.7859871443109554e+01
pressure[innode_4] 81.01325
pressure[innode_5] 8.0936042306062660e+01
pressure[innode_6] 7.4339136851462413e+01
pressure[innode_7] 81.01325
pressure[innode_8] 8.0380497360334317e+01
pressure[source_1] 81.01325
pressure[source_2] 81.01325
pressure[source_3] 81.01325
pressure[sink_1] 4.6705981783147195e+01
pressure[sink_2] 74.9749473472492
pressure[sink_3] 8.0380497360334317e+01
pressure[sink_4] 5.1586863702217030e+01
pressure[sink_5] 4.9459572025231545e+01
pressure[sink_6] 4.8807059393534566e+01
pressure[sink_7] 4.8092855390929437e+01
pressure[sink_8] 5.1624997548995026e+01
pressure[sink_9] 5.5755899588625361e+01
pressure[sink_10] 7.5793447847648011e+01
pressure[sink_11] 7.5641746540044466e+01
pressure[sink_12] 1.0132500000000002e+00
pressure[sink_13] 7.4326817573027611e+01
pressure[sink_14] 7.4352085642239885e+01
pressure[sink_15] 7.4810687945473134e+01
pressure[sink_16] 7.4620096705226786e+01
pressure[sink_17] 5.0922639482292730e+01
pressure[sink_18] 51.5064447865538
pressure[sink_19] 7.7945819143800477e+01
pressure[sink_20] 54.0617934419502
pressure[sink_21] 3.2375313879524548e+00
pressure[sink_22] 47.7697509255022
pressure[sink_23] 8.0215779348674531e+01
pressure[sink_24] 3.4878574237085824e+00
pressure[sink_25] 7.4339136851462413e+01
pressure[sink_26] 6.3764033491340655e+01
pressure[sink_27] 8.0004620263077882e+01
pressure[sink_28] 7.6368408359067544e+01
pressure[sink_29] 7.6663690632684734e+01
interdiction[source_1,sink_3] 0
interdiction[innode_1,sink_16] 0
interdiction[innode_6,sink_13] 0
interdiction[sink_13,sink_14] 0
interdiction[sink_14,sink_10] 0
interdiction[sink_25,sink_26] 0
interdiction[sink_26,sink_9] 0
interdiction[sink_9,sink_18] 0
interdiction[sink_26,sink_4] 1
interdiction[sink_4,sink_20] 0
interdiction[sink_18,sink_6] 0
interdiction[sink_25,innode_8] 0
interdiction[sink_6,sink_7] 0
interdiction[sink_6,sink_22] 0
interdiction[sink_7,sink_24] 0
interdiction[sink_22,sink_1] 0
interdiction[sink_24,sink_21] 0
interdiction[sink_21,sink_12] 0
interdiction[sink_7,sink_5] 0
interdiction[sink_5,sink_17] 0
interdiction[sink_17,sink_4] 0
interdiction[sink_17,sink_8] 0
interdiction[sink_3,sink_23] 0
interdiction[sink_8,sink_20] 0
interdiction[sink_25,sink_20] 0
interdiction[sink_25,sink_15] 0
interdiction[sink_15,sink_29] 0
interdiction[sink_29,sink_28] 0
interdiction[sink_29,sink_2] 0
interdiction[sink_2,sink_15] 0
interdiction[sink_29,innode_7] 0
interdiction[innode_4,sink_19] 1
interdiction[sink_19,innode_3] 0
interdiction[innode_4,innode_5] 0
interdiction[sink_27,innode_5] 0
interdiction[sink_27,sink_19] 0
interdiction[sink_10,sink_11] 0
interdiction[sink_10,innode_2] 0
interdiction[sink_10,innode_3] 0
interdiction[innode_6,sink_25] 0
interdiction[sink_11,innode_1] 0
interdiction[sink_19,innode_2] 0
interdiction[source_3,innode_4] 0
interdiction[source_2,innode_7] 0
interdiction[sink_3,innode_8] 0
WCcheckFlow[source_1,sink_3] 39
WCcheckFlow[innode_1,sink_16] 1
WCcheckFlow[innode_6,sink_13] 13
WCcheckFlow[sink_13,sink_14] 12
WCcheckFlow[sink_14,sink_10] 11
WCcheckFlow[sink_25,sink_26] 15
WCcheckFlow[sink_26,sink_9] 14
WCcheckFlow[sink_9,sink_18] 13
WCcheckFlow[sink_26,sink_4] 0
WCcheckFlow[sink_4,sink_20] 1
WCcheckFlow[sink_18,sink_6] 12
WCcheckFlow[sink_25,innode_8] -36
WCcheckFlow[sink_6,sink_7] 9
WCcheckFlow[sink_6,sink_22] 2
WCcheckFlow[sink_7,sink_24] 3
WCcheckFlow[sink_22,sink_1] 1
WCcheckFlow[sink_24,sink_21] 2
WCcheckFlow[sink_21,sink_12] 1
WCcheckFlow[sink_7,sink_5] 5
WCcheckFlow[sink_5,sink_17] 4
WCcheckFlow[sink_17,sink_4] 2
WCcheckFlow[sink_17,sink_8] 1
WCcheckFlow[sink_3,sink_23] 1
WCcheckFlow[sink_8,sink_20] 0
WCcheckFlow[sink_25,sink_20] 0
WCcheckFlow[sink_25,sink_15] 6
WCcheckFlow[sink_15,sink_29] 5
WCcheckFlow[sink_29,sink_28] 1
WCcheckFlow[sink_29,sink_2] 1
WCcheckFlow[sink_2,sink_15] 0
WCcheckFlow[sink_29,innode_7] 2
WCcheckFlow[innode_4,sink_19] 0
WCcheckFlow[sink_19,innode_3] -5
WCcheckFlow[innode_4,innode_5] -2
WCcheckFlow[sink_27,innode_5] 3
WCcheckFlow[sink_27,sink_19] -4
WCcheckFlow[sink_10,sink_11] 3
WCcheckFlow[sink_10,innode_2] 1
WCcheckFlow[sink_10,innode_3] 6
WCcheckFlow[innode_6,sink_25] -14
WCcheckFlow[sink_11,innode_1] 2
WCcheckFlow[sink_19,innode_2] 0
WCcheckFlow[source_3,innode_4] -1
WCcheckFlow[source_2,innode_7] -1
WCcheckFlow[sink_3,innode_8] 37
